FILENAME:   ../instances_new/flowersnark/flowersnark9_3.cip
SETTINGS:   settings_final_peek_relabel_min
TIMELIMIT:  7200
OUTPUTNAME: final_flowersnark__settings_final_peek_relabel_min__1__
BINNAME:    bin/sbcs.linux.x86_64.gnu.opt.cpx
BASENAME:   flowersnark9_3.cip
SEED:       1
@01 ../instances_new/flowersnark/flowersnark9_3.cip ===========
@02 flowersnark9_3.cip
@03 1667947343
SCIP version 8.0.2 [precision: 8 byte] [memory: block] [mode: optimized] [LP solver: CPLEX 20.1.0.0] [GitHash: 5f0473c]
Copyright (C) 2002-2022 Konrad-Zuse-Zentrum fuer Informationstechnik Berlin (ZIB)

Symretope propagation methods - (c) Jasper van Doornmalen, Christopher Hojny.
[GitHash: 2fd0484]

reading parameter file <../settings/settings_final_peek_relabel_min.set> ...

Changed settings:
limits/time = 7200
misc/usesymmetry = 1
randomization/randomseedshift = 1
constraints/orbisack/sepafreq = -1
constraints/symresack/sepafreq = -1
propagating/symmetry/addsymresacks = TRUE
propagating/symmetry/detectsubgroups = FALSE
propagating/symmetry/relabelsymretopes = 2
propagating/symmetry/ofsymcomptiming = 0
constraints/symretope/sepafreq = -1


solving problem ...

original problem has 162 variables (162 bin, 0 int, 0 impl, 0 cont) and 162 constraints
presolving:
(round 1, exhaustive) 0 del vars, 0 del conss, 0 add conss, 0 chg bounds, 0 chg sides, 0 chg coeffs, 162 upgd conss, 0 impls, 162 clqs
   (0.0s) probing: 51/162 (31.5%) - 0 fixings, 0 aggregations, 0 implications, 0 bound changes
   (0.0s) probing aborted: 50/50 successive totally useless probings
   (0.0s) symmetry computation started: requiring (bin +, int +, cont +), (fixed: bin -, int -, cont -)
   (0.0s) symmetry computation finished: 5 generators found (max: 1500, log10 of symmetry group size: 2.3)
(round 2, exhaustive) 7 del vars, 0 del conss, 5 add conss, 0 chg bounds, 0 chg sides, 0 chg coeffs, 162 upgd conss, 0 impls, 159 clqs
(round 3, fast)       16 del vars, 7 del conss, 5 add conss, 0 chg bounds, 0 chg sides, 0 chg coeffs, 162 upgd conss, 0 impls, 155 clqs
(round 4, medium)     17 del vars, 7 del conss, 5 add conss, 0 chg bounds, 0 chg sides, 0 chg coeffs, 162 upgd conss, 0 impls, 155 clqs
(round 5, fast)       18 del vars, 8 del conss, 5 add conss, 0 chg bounds, 0 chg sides, 0 chg coeffs, 162 upgd conss, 0 impls, 154 clqs
   (0.0s) probing cycle finished: starting next cycle
(round 6, exhaustive) 25 del vars, 8 del conss, 5 add conss, 0 chg bounds, 0 chg sides, 0 chg coeffs, 162 upgd conss, 0 impls, 254 clqs
(round 7, fast)       25 del vars, 18 del conss, 5 add conss, 0 chg bounds, 1 chg sides, 0 chg coeffs, 162 upgd conss, 0 impls, 254 clqs
   (0.0s) probing cycle finished: starting next cycle
(round 8, exhaustive) 26 del vars, 18 del conss, 5 add conss, 0 chg bounds, 1 chg sides, 0 chg coeffs, 162 upgd conss, 0 impls, 285 clqs
(round 9, fast)       26 del vars, 19 del conss, 5 add conss, 0 chg bounds, 1 chg sides, 0 chg coeffs, 162 upgd conss, 0 impls, 285 clqs
   (0.0s) probing: 138/142 (97.2%) - 0 fixings, 8 aggregations, 161 implications, 0 bound changes
   (0.0s) probing aborted: 50/50 successive totally useless probings
presolving (10 rounds: 10 fast, 6 medium, 5 exhaustive):
 26 deleted vars, 19 deleted constraints, 5 added constraints, 0 tightened bounds, 0 added holes, 1 changed sides, 0 changed coefficients
 0 implications, 287 cliques
presolved problem has 141 variables (141 bin, 0 int, 0 impl, 0 cont) and 148 constraints
    143 constraints of type <setppc>
      2 constraints of type <orbisack>
      2 constraints of type <orbitope>
      1 constraints of type <symretope>
transformed objective value is always integral (scale: 1)
Presolving Time: 0.01

 time | node  | left  |LP iter|LP it/n|mem/heur|mdpt |vars |cons |rows |cuts |sepa|confs|strbr|  dualbound   | primalbound  |  gap   | compl. 
  0.0s|     1 |     0 |    96 |     - |  2972k |   0 | 141 | 190 | 144 |   0 |  0 |  41 |   0 | 0.000000e+00 |      --      |    Inf | unknown
  0.1s|     1 |     0 |   319 |     - |  3082k |   0 | 141 | 387 | 134 |   0 |  1 |  42 |   0 | 0.000000e+00 |      --      |    Inf | unknown
  0.1s|     1 |     0 |   364 |     - |  3566k |   0 | 141 | 377 | 136 |   2 |  2 |  43 |   0 | 0.000000e+00 |      --      |    Inf | unknown
  0.1s|     1 |     0 |   374 |     - |  3651k |   0 | 141 | 369 | 139 |   5 |  3 |  44 |   0 | 0.000000e+00 |      --      |    Inf | unknown
  0.1s|     1 |     0 |   391 |     - |  3681k |   0 | 141 | 372 | 140 |   6 |  4 |  47 |   0 | 0.000000e+00 |      --      |    Inf | unknown
  0.1s|     1 |     0 |   425 |     - |  3729k |   0 | 141 | 371 | 142 |   8 |  5 |  48 |   0 | 0.000000e+00 |      --      |    Inf | unknown
  0.1s|     1 |     0 |   456 |     - |  3955k |   0 | 141 | 372 | 145 |  11 |  6 |  49 |   0 | 0.000000e+00 |      --      |    Inf | unknown
  0.1s|     1 |     0 |   497 |     - |  4026k |   0 | 141 | 373 | 149 |  15 |  7 |  51 |   0 | 0.000000e+00 |      --      |    Inf | unknown
  0.1s|     1 |     0 |   543 |     - |  4118k |   0 | 141 | 374 | 152 |  18 |  8 |  52 |   0 | 0.000000e+00 |      --      |    Inf | unknown
  0.1s|     1 |     0 |   561 |     - |  4165k |   0 | 141 | 374 | 154 |  20 |  9 |  53 |   0 | 0.000000e+00 |      --      |    Inf | unknown
  0.1s|     1 |     0 |   575 |     - |  4182k |   0 | 141 | 376 | 155 |  21 | 10 |  55 |   0 | 0.000000e+00 |      --      |    Inf | unknown
  0.1s|     1 |     0 |   595 |     - |  4198k |   0 | 141 | 377 | 156 |  22 | 11 |  58 |   0 | 0.000000e+00 |      --      |    Inf | unknown
  0.1s|     1 |     0 |   612 |     - |  4308k |   0 | 141 | 378 | 156 |  24 | 13 |  59 |   0 | 0.000000e+00 |      --      |    Inf | unknown
  0.1s|     1 |     0 |   631 |     - |  4308k |   0 | 141 | 278 | 156 |  24 | 13 |  60 |   0 | 0.000000e+00 |      --      |    Inf | unknown
  0.1s|     1 |     0 |   677 |     - |  4308k |   0 | 141 | 278 | 157 |  25 | 14 |  61 |   0 | 0.000000e+00 |      --      |    Inf | unknown
 time | node  | left  |LP iter|LP it/n|mem/heur|mdpt |vars |cons |rows |cuts |sepa|confs|strbr|  dualbound   | primalbound  |  gap   | compl. 
  0.1s|     1 |     0 |   696 |     - |  4325k |   0 | 141 | 280 | 158 |  26 | 15 |  63 |   0 | 0.000000e+00 |      --      |    Inf | unknown
  0.1s|     1 |     0 |   713 |     - |  4342k |   0 | 141 | 281 | 159 |  27 | 16 |  65 |   0 | 0.000000e+00 |      --      |    Inf | unknown
  0.1s|     1 |     0 |   740 |     - |  4359k |   0 | 141 | 283 | 160 |  28 | 17 |  67 |   0 | 0.000000e+00 |      --      |    Inf | unknown
(run 1, node 1) restarting after 36 global fixings of integer variables

(restart) converted 25 cuts from the global cut pool into linear constraints

presolving:
(round 1, fast)       56 del vars, 40 del conss, 0 add conss, 0 chg bounds, 1 chg sides, 9 chg coeffs, 0 upgd conss, 0 impls, 113 clqs
(round 2, fast)       57 del vars, 42 del conss, 0 add conss, 0 chg bounds, 1 chg sides, 9 chg coeffs, 0 upgd conss, 0 impls, 112 clqs
(round 3, medium)     68 del vars, 42 del conss, 0 add conss, 0 chg bounds, 1 chg sides, 9 chg coeffs, 0 upgd conss, 0 impls, 85 clqs
(round 4, fast)       73 del vars, 91 del conss, 0 add conss, 0 chg bounds, 2 chg sides, 13 chg coeffs, 0 upgd conss, 0 impls, 84 clqs
(round 5, exhaustive) 73 del vars, 97 del conss, 3 add conss, 0 chg bounds, 2 chg sides, 13 chg coeffs, 0 upgd conss, 0 impls, 84 clqs
(round 6, fast)       74 del vars, 102 del conss, 3 add conss, 0 chg bounds, 2 chg sides, 14 chg coeffs, 0 upgd conss, 0 impls, 82 clqs
(round 7, exhaustive) 74 del vars, 104 del conss, 3 add conss, 0 chg bounds, 2 chg sides, 14 chg coeffs, 0 upgd conss, 0 impls, 82 clqs
(round 8, exhaustive) 74 del vars, 108 del conss, 3 add conss, 0 chg bounds, 5 chg sides, 14 chg coeffs, 0 upgd conss, 0 impls, 82 clqs
(round 9, exhaustive) 74 del vars, 108 del conss, 3 add conss, 0 chg bounds, 5 chg sides, 14 chg coeffs, 106 upgd conss, 0 impls, 82 clqs
(round 10, medium)     74 del vars, 111 del conss, 9 add conss, 0 chg bounds, 11 chg sides, 26 chg coeffs, 106 upgd conss, 0 impls, 86 clqs
(round 11, fast)       74 del vars, 112 del conss, 9 add conss, 0 chg bounds, 11 chg sides, 26 chg coeffs, 106 upgd conss, 0 impls, 86 clqs
(round 12, exhaustive) 74 del vars, 116 del conss, 11 add conss, 0 chg bounds, 11 chg sides, 26 chg coeffs, 106 upgd conss, 0 impls, 86 clqs
(round 13, exhaustive) 74 del vars, 116 del conss, 11 add conss, 0 chg bounds, 11 chg sides, 28 chg coeffs, 106 upgd conss, 0 impls, 86 clqs
(round 14, exhaustive) 74 del vars, 116 del conss, 11 add conss, 0 chg bounds, 11 chg sides, 29 chg coeffs, 106 upgd conss, 0 impls, 86 clqs
(round 15, exhaustive) 74 del vars, 123 del conss, 11 add conss, 0 chg bounds, 11 chg sides, 29 chg coeffs, 106 upgd conss, 0 impls, 86 clqs
(round 16, exhaustive) 74 del vars, 125 del conss, 11 add conss, 0 chg bounds, 11 chg sides, 32 chg coeffs, 106 upgd conss, 0 impls, 86 clqs
(round 17, exhaustive) 74 del vars, 127 del conss, 12 add conss, 0 chg bounds, 11 chg sides, 32 chg coeffs, 106 upgd conss, 0 impls, 87 clqs
(round 18, fast)       75 del vars, 129 del conss, 12 add conss, 0 chg bounds, 11 chg sides, 32 chg coeffs, 106 upgd conss, 0 impls, 85 clqs
(round 19, fast)       75 del vars, 130 del conss, 13 add conss, 0 chg bounds, 11 chg sides, 32 chg coeffs, 106 upgd conss, 0 impls, 85 clqs
(round 20, exhaustive) 75 del vars, 131 del conss, 13 add conss, 0 chg bounds, 11 chg sides, 32 chg coeffs, 106 upgd conss, 0 impls, 85 clqs
(round 21, exhaustive) 75 del vars, 131 del conss, 13 add conss, 0 chg bounds, 11 chg sides, 53 chg coeffs, 106 upgd conss, 0 impls, 85 clqs
(round 22, exhaustive) 75 del vars, 132 del conss, 13 add conss, 0 chg bounds, 11 chg sides, 53 chg coeffs, 106 upgd conss, 0 impls, 85 clqs
presolving (23 rounds: 23 fast, 16 medium, 14 exhaustive):
 75 deleted vars, 132 deleted constraints, 13 added constraints, 0 tightened bounds, 0 added holes, 11 changed sides, 53 changed coefficients
 0 implications, 85 cliques
presolved problem has 66 variables (66 bin, 0 int, 0 impl, 0 cont) and 193 constraints
     21 constraints of type <knapsack>
     75 constraints of type <setppc>
      2 constraints of type <orbisack>
      2 constraints of type <orbitope>
      1 constraints of type <symretope>
     92 constraints of type <logicor>
transformed objective value is always integral (scale: 1)
Presolving Time: 0.02

 time | node  | left  |LP iter|LP it/n|mem/heur|mdpt |vars |cons |rows |cuts |sepa|confs|strbr|  dualbound   | primalbound  |  gap   | compl. 
  0.1s|     1 |     0 |   820 |     - |  4457k |   0 |  66 | 199 |  93 |   0 |  0 |  79 |   0 | 0.000000e+00 |      --      |    Inf | unknown
  0.2s|     1 |     0 |   825 |     - |  4473k |   0 |  66 | 201 |  93 |   0 |  1 |  81 |   0 |    cutoff    |      --      |   0.00%| unknown
  0.2s|     1 |     0 |   825 |     - |  4473k |   0 |  66 | 201 |  93 |   0 |  1 |  81 |   0 |    cutoff    |      --      |   0.00%| unknown

SCIP Status        : problem is solved [infeasible]
Solving Time (sec) : 0.16
Solving Nodes      : 1 (total of 2 nodes in 2 runs)
Primal Bound       : +1.00000000000000e+20 (0 solutions)
Dual Bound         : +1.00000000000000e+20
Gap                : 0.00 %
SCIP Status        : problem is solved [infeasible]
Total Time         :       0.16
  solving          :       0.16
  presolving       :       0.02 (included in solving)
  reading          :       0.00
  copying          :       0.01 (4 #copies) (minimal 0.00, maximal 0.00, average 0.00)
Original Problem   :
  Problem name     : model
  Variables        : 162 (162 binary, 0 integer, 0 implicit integer, 0 continuous)
  Constraints      : 162 initial, 162 maximal
  Objective        : minimize, 0 non-zeros (abs.min = 1e+20, abs.max = -1e+20)
Presolved Problem  :
  Problem name     : t_model
  Variables        : 66 (66 binary, 0 integer, 0 implicit integer, 0 continuous)
  Constraints      : 193 initial, 201 maximal
  Objective        : minimize, 0 non-zeros (abs.min = 1e+20, abs.max = -1e+20)
  Nonzeros         : 1551 constraint, 237 clique table
Presolvers         :   ExecTime  SetupTime  Calls  FixedVars   AggrVars   ChgTypes  ChgBounds   AddHoles    DelCons    AddCons   ChgSides   ChgCoefs
  boundshift       :       0.00       0.00      0          0          0          0          0          0          0          0          0          0
  convertinttobin  :       0.00       0.00      0          0          0          0          0          0          0          0          0          0
  domcol           :       0.00       0.00      5          0          0          0          0          0          0          0          0          0
  dualagg          :       0.00       0.00      0          0          0          0          0          0          0          0          0          0
  dualcomp         :       0.00       0.00      0          0          0          0          0          0          0          0          0          0
  dualinfer        :       0.00       0.00      0          0          0          0          0          0          0          0          0          0
  dualsparsify     :       0.00       0.00      1          0          0          0          0          0          0          0          0          0
  gateextraction   :       0.00       0.00     14          0          0          0          0          0         12          6          0          0
  implics          :       0.00       0.00     22          0          0          0          0          0          0          0          0          0
  inttobinary      :       0.00       0.00      0          0          0          0          0          0          0          0          0          0
  qpkktref         :       0.00       0.00      0          0          0          0          0          0          0          0          0          0
  redvub           :       0.00       0.00      0          0          0          0          0          0          0          0          0          0
  sparsify         :       0.00       0.00      2          0          0          0          0          0          0          0          0          0
  stuffing         :       0.00       0.00      0          0          0          0          0          0          0          0          0          0
  trivial          :       0.00       0.00     33         44          0          0          0          0          0          0          0          0
  tworowbnd        :       0.00       0.00      0          0          0          0          0          0          0          0          0          0
  dualfix          :       0.00       0.00     33          0          0          0          0          0          0          0          0          0
  genvbounds       :       0.00       0.00      0          0          0          0          0          0          0          0          0          0
  probing          :       0.01       0.00      4          0          8          0          0          0          0          0          0          0
  pseudoobj        :       0.00       0.00      1          0          0          0          0          0          0          0          0          0
  symmetry         :       0.00       0.00      1          2          0          0          0          0          0          5          0          0
  vbounds          :       0.00       0.00      4          0         11          0          0          0          0          0          0          0
  knapsack         :       0.00       0.00     33          0          0          0          0          0          4          7          6         15
  setppc           :       0.00       0.00     66          4         26          0          0          0         78          0          1          0
  linear           :       0.00       0.00     13          0          0          0          0          0         33          0          5          2
  orbisack         :       0.00       0.00      7          0          0          0          0          0          0          0          0          0
  orbitope         :       0.00       0.00     20          1          0          0          0          0          0          0          0          0
  symretope        :       0.00       0.00      7          0          0          0          0          0          0          0          0          0
  logicor          :       0.00       0.00     43          0          0          0          0          0         24          0          0         36
  benders          :       0.00       0.00      0          0          0          0          0          0          0          0          0          0
  components       :       0.00       0.00      2          0          0          0          0          0          0          0          0          0
  root node        :          -          -      -         97          -          -         97          -          -          -          -          -
Constraints        :     Number  MaxNumber  #Separate #Propagate    #EnfoLP    #EnfoRelax  #EnfoPS    #Check   #ResProp    Cutoffs    DomReds       Cuts    Applied      Conss   Children
  benderslp        :          0          0          0          0          0          0          0          9          0          0          0          0          0          0          0
  integral         :          0          0          0          0          0          0          0          9          0          0          0          0          0          0          0
  knapsack         :         21         21          1         45          0          0          0          0          5          2          0          0          0          0          0
  setppc           :         75+        77         19       1376          0          0          0          3        415         42          5          0          0          0          0
  orbisack         :          2          2          0          5          0          0          0          0          1          1          0          0          0          0          0
  orbitope         :          2          2          0       1232          0          0          0          0         13          0          0          0          0          0          0
  symretope        :          1          1          0         47          0          0          0          0          1          2          1          0          0          0          0
  logicor          :         92+        98         19        200          0          0          0          0         21          4          0          0          0          0          0
  benders          :          0          0          0          0          0          0          0          0          0          0          0          0          0          0          0
  countsols        :          0          0          0          0          0          0          0          0          0          0          0          0          0          0          0
  components       :          0          0          0          0          0          0          0          0          0          0          0          0          0          0          0
Constraint Timings :  TotalTime  SetupTime   Separate  Propagate     EnfoLP     EnfoPS     EnfoRelax   Check    ResProp    SB-Prop
  benderslp        :       0.00       0.00       0.00       0.00       0.00       0.00       0.00       0.00       0.00       0.00
  integral         :       0.00       0.00       0.00       0.00       0.00       0.00       0.00       0.00       0.00       0.00
  knapsack         :       0.00       0.00       0.00       0.00       0.00       0.00       0.00       0.00       0.00       0.00
  setppc           :       0.00       0.00       0.00       0.00       0.00       0.00       0.00       0.00       0.00       0.00
  orbisack         :       0.00       0.00       0.00       0.00       0.00       0.00       0.00       0.00       0.00       0.00
  orbitope         :       0.00       0.00       0.00       0.00       0.00       0.00       0.00       0.00       0.00       0.00
  symretope        :       0.00       0.00       0.00       0.00       0.00       0.00       0.00       0.00       0.00       0.00
  logicor          :       0.00       0.00       0.00       0.00       0.00       0.00       0.00       0.00       0.00       0.00
  benders          :       0.00       0.00       0.00       0.00       0.00       0.00       0.00       0.00       0.00       0.00
  countsols        :       0.00       0.00       0.00       0.00       0.00       0.00       0.00       0.00       0.00       0.00
  components       :       0.00       0.00       0.00       0.00       0.00       0.00       0.00       0.00       0.00       0.00
Propagators        : #Propagate   #ResProp    Cutoffs    DomReds
  dualfix          :          6          0          0          0
  genvbounds       :          0          0          0          0
  nlobbt           :          0          0          0          0
  obbt             :          0          0          0          0
  probing          :          0          0          0          0
  pseudoobj        :          0          0          0          0
  redcost          :          0          0          0          0
  rootredcost      :          0          0          0          0
  symmetry         :          0          0          0          0
  vbounds          :        340          0          0          0
Propagator Timings :  TotalTime  SetupTime   Presolve  Propagate    ResProp    SB-Prop
  dualfix          :       0.00       0.00       0.00       0.00       0.00       0.00
  genvbounds       :       0.00       0.00       0.00       0.00       0.00       0.00
  nlobbt           :       0.00       0.00       0.00       0.00       0.00       0.00
  obbt             :       0.00       0.00       0.00       0.00       0.00       0.00
  probing          :       0.01       0.00       0.01       0.00       0.00       0.00
  pseudoobj        :       0.00       0.00       0.00       0.00       0.00       0.00
  redcost          :       0.00       0.00       0.00       0.00       0.00       0.00
  rootredcost      :       0.00       0.00       0.00       0.00       0.00       0.00
  symmetry         :       0.00       0.00       0.00       0.00       0.00       0.00
  vbounds          :       0.00       0.00       0.00       0.00       0.00       0.00
Orbital fixing     :
  vars fixed to 0  :          0
  vars fixed to 1  :          0
Conflict Analysis  :       Time      Calls    Success    DomReds  Conflicts   Literals    Reconvs ReconvLits   Dualrays   Nonzeros   LP Iters   (pool size: [10000,10000])
  propagation      :       0.00         46         46          -         93        6.0          2        5.5          -          -          -
  infeasible LP    :       0.00          0          0          -          0        0.0          0        0.0          0        0.0          0
  bound exceed. LP :       0.00          0          0          -          0        0.0          0        0.0          0        0.0          0
  strong branching :       0.00          0          0          -          0        0.0          0        0.0          -          -          0
  pseudo solution  :       0.00          0          0          -          0        0.0          0        0.0          -          -          -
  applied globally :       0.00          -          -          0         81        4.4          -          -          0          -          -
  applied locally  :          -          -          -          0          0        0.0          -          -          0          -          -
Separators         :   ExecTime  SetupTime      Calls  RootCalls    Cutoffs    DomReds  FoundCuts ViaPoolAdd  DirectAdd    Applied ViaPoolApp  DirectApp      Conss
  cut pool         :       0.00          -         34         34          -          -        482        211          -          -          -          -          -    (maximal pool size:        385)
  aggregation      :       0.01       0.00         18         18          0          0          0          0          0          0          0          0          0
  > cmir           :          -          -          -          -          -          -          -          0          0          0          0          0          -
  > flowcover      :          -          -          -          -          -          -          -          0          0          0          0          0          -
  > knapsackcover  :          -          -          -          -          -          -          -          0          0          0          0          0          -
  cgmip            :       0.00       0.00          0          0          0          0          0          0          0          0          0          0          0
  clique           :       0.00       0.00         18         18          0          0          0          0          0          0          0          0          0
  closecuts        :       0.00       0.00          0          0          0          0          0          0          0          0          0          0          0
  convexproj       :       0.00       0.00          0          0          0          0          0          0          0          0          0          0          0
  disjunctive      :       0.00       0.00          0          0          0          0          0          0          0          0          0          0          0
  eccuts           :       0.00       0.00          0          0          0          0          0          0          0          0          0          0          0
  gauge            :       0.00       0.00          0          0          0          0          0          0          0          0          0          0          0
  gomory           :       0.02       0.00         11         11          0          0        459        193          0         11         11          0          0
  > gomorymi       :          -          -          -          -          -          -          -         15          0          0          0          0          -
  > strongcg       :          -          -          -          -          -          -          -        178          0         11         11          0          -
  impliedbounds    :       0.00       0.00         18         18          0          4          0          0          0          0          0          0          0
  interminor       :       0.00       0.00          0          0          0          0          0          0          0          0          0          0          0
  intobj           :       0.00       0.00          0          0          0          0          0          0          0          0          0          0          0
  mcf              :       0.00       0.00          2          2          0          0          0          0          0          0          0          0          0
  minor            :       0.00       0.00          0          0          0          0          0          0          0          0          0          0          0
  mixing           :       0.00       0.00          0          0          0          0          0          0          0          0          0          0          0
  oddcycle         :       0.00       0.00          0          0          0          0          0          0          0          0          0          0          0
  rapidlearning    :       0.05       0.00          2          2          0         84          0          0          0          0          0          0        200
  rlt              :       0.00       0.00         11         11          0          0          0          0          0          0          0          0          0
  zerohalf         :       0.01       0.00         18         18          0          0         23         18          0         16         16          0          0
Cutselectors       :   ExecTime  SetupTime      Calls  RootCalls   Selected     Forced   Filtered  RootSelec   RootForc   RootFilt 
  hybrid           :       0.00       0.00         15         15         28          0        184         28          0        184
Pricers            :   ExecTime  SetupTime      Calls       Vars
  problem variables:       0.00          -          0          0
Branching Rules    :   ExecTime  SetupTime   BranchLP  BranchExt   BranchPS    Cutoffs    DomReds       Cuts      Conss   Children
  allfullstrong    :       0.00       0.00          0          0          0          0          0          0          0          0
  cloud            :       0.00       0.00          0          0          0          0          0          0          0          0
  distribution     :       0.00       0.00          0          0          0          0          0          0          0          0
  fullstrong       :       0.00       0.00          0          0          0          0          0          0          0          0
  inference        :       0.00       0.00          0          0          0          0          0          0          0          0
  leastinf         :       0.00       0.00          0          0          0          0          0          0          0          0
  lookahead        :       0.00       0.00          0          0          0          0          0          0          0          0
  mostinf          :       0.00       0.00          0          0          0          0          0          0          0          0
  multaggr         :       0.00       0.00          0          0          0          0          0          0          0          0
  nodereopt        :       0.00       0.00          0          0          0          0          0          0          0          0
  pscost           :       0.00       0.00          0          0          0          0          0          0          0          0
  random           :       0.00       0.00          0          0          0          0          0          0          0          0
  relpscost        :       0.00       0.00          0          0          0          0          0          0          0          0
  vanillafullstrong:       0.00       0.00          0          0          0          0          0          0          0          0
Primal Heuristics  :   ExecTime  SetupTime      Calls      Found       Best
  LP solutions     :       0.00          -          -          0          0
  relax solutions  :       0.00          -          -          0          0
  pseudo solutions :       0.00          -          -          0          0
  strong branching :       0.00          -          -          0          0
  actconsdiving    :       0.00       0.00          0          0          0
  adaptivediving   :       0.00       0.00          0          0          0
  alns             :       0.00       0.00          1          0          0
  bound            :       0.00       0.00          0          0          0
  clique           :       0.00       0.00          1          0          0
  coefdiving       :       0.00       0.00          0          0          0
  completesol      :       0.00       0.00          0          0          0
  conflictdiving   :       0.00       0.00          1          0          0
  crossover        :       0.00       0.00          0          0          0
  dins             :       0.00       0.00          0          0          0
  distributiondivin:       0.00       0.00          0          0          0
  dps              :       0.00       0.00          0          0          0
  dualval          :       0.00       0.00          0          0          0
  farkasdiving     :       0.00       0.00          0          0          0
  feaspump         :       0.00       0.00          1          0          0
  fixandinfer      :       0.00       0.00          0          0          0
  fracdiving       :       0.00       0.00          0          0          0
  gins             :       0.00       0.00          0          0          0
  guideddiving     :       0.00       0.00          0          0          0
  indicator        :       0.00       0.00          0          0          0
  intdiving        :       0.00       0.00          0          0          0
  intshifting      :       0.00       0.00          0          0          0
  linesearchdiving :       0.00       0.00          0          0          0
  localbranching   :       0.00       0.00          0          0          0
  locks            :       0.00       0.00          1          0          0
  lpface           :       0.00       0.00          0          0          0
  mpec             :       0.00       0.00          0          0          0
  multistart       :       0.00       0.00          0          0          0
  mutation         :       0.00       0.00          0          0          0
  nlpdiving        :       0.00       0.00          0          0          0
  objpscostdiving  :       0.00       0.00          0          0          0
  octane           :       0.00       0.00          0          0          0
  ofins            :       0.00       0.00          0          0          0
  oneopt           :       0.00       0.00          0          0          0
  padm             :       0.00       0.00          0          0          0
  proximity        :       0.00       0.00          0          0          0
  pscostdiving     :       0.00       0.00          0          0          0
  randrounding     :       0.01       0.00         19          0          0
  rens             :       0.01       0.00          1          0          0
  reoptsols        :       0.00       0.00          0          0          0
  repair           :       0.00       0.00          0          0          0
  rins             :       0.00       0.00          0          0          0
  rootsoldiving    :       0.00       0.00          0          0          0
  rounding         :       0.00       0.00         19          0          0
  shiftandpropagate:       0.00       0.00          2          0          0
  shifting         :       0.00       0.00         19          0          0
  simplerounding   :       0.00       0.00          0          0          0
  subnlp           :       0.00       0.00          0          0          0
  trivial          :       0.00       0.00          2          0          0
  trivialnegation  :       0.00       0.00          0          0          0
  trustregion      :       0.00       0.00          0          0          0
  trysol           :       0.00       0.00          0          0          0
  twoopt           :       0.00       0.00          0          0          0
  undercover       :       0.00       0.00          0          0          0
  vbounds          :       0.00       0.00          2          0          0
  veclendiving     :       0.00       0.00          0          0          0
  zeroobj          :       0.00       0.00          0          0          0
  zirounding       :       0.00       0.00          1          0          0
  other solutions  :          -          -          -          0          -
LP                 :       Time      Calls Iterations  Iter/call   Iter/sec  Time-0-It Calls-0-It    ItLimit
  primal LP        :       0.00          2          0       0.00          -       0.00          2
  dual LP          :       0.01         21        647      32.35   48826.50       0.00          1
  lex dual LP      :       0.00          0          0       0.00          -
  barrier LP       :       0.00          0          0       0.00          -       0.00          0
  resolve instable :       0.00          0          0       0.00          -
  diving/probing LP:       0.00         11        178      16.18          -
  strong branching :       0.00          0          0       0.00          -          -          -          0
    (at root node) :          -          0          0       0.00          -
  conflict analysis:       0.00          0          0       0.00          -
B&B Tree           :
  number of runs   :          2
  nodes            :          1 (0 internal, 1 leaves)
  feasible leaves  :          0
  infeas. leaves   :          0
  objective leaves :          0
  nodes (total)    :          2 (0 internal, 2 leaves)
  nodes left       :          0
  max depth        :          0
  max depth (total):          0
  backtracks       :          0 (0.0%)
  early backtracks :          0 (0.0%)
  nodes exc. ref.  :          0 (0.0%)
  delayed cutoffs  :          0
  repropagations   :          0 (0 domain reductions, 0 cutoffs)
  avg switch length:       2.00
  switching time   :       0.00
Root Node          :
  First LP value   : +0.00000000000000e+00
  First LP Iters   :         96 (49256.03 Iter/sec)
  First LP Time    :       0.00
  Final Dual Bound :          -
  Final Root Iters :        825
  Root LP Estimate :                     -
Solution           :
  Solutions found  :          0 (0 improvements)
  Primal Bound     : infeasible
  Dual Bound       :          -
  Gap              :       0.00 %
Integrals          :      Total       Avg%
  primal-dual      :          -          - (problem infeasible)
  primal-ref       :          -          - (problem infeasible)
  dual-ref         :          -          - (problem infeasible)
written solution information to file <results/final_flowersnark__settings_final_peek_relabel_min__1__flowersnark9_3.cip.sol>
@04 1667947343
